95
65
11
67
87
57
48
8
85
17
6
79
31
38
5
35
52
12
30
71
41
93
70
4
92
55
16
66
63
22
37
24
44
51
61
19
21
40
77
15
10
68
39
74
98
42
0
53
47
64
25
20
86
91
84
14
94
73
36
29
80
33
60
72
9
78
28
45
81
83
58
69
56
88
23
7
75
49
90
32
2
43
54
50
13
82
26
97
34
76
46
99
3
18
1
89
27
59
62
96
